26129
1 0 1 0 1 0 0 0 1 0 1 0 1 1 1 0 1 0 1 1 0 0 0 0 0 1 0 1 1 0 
18 19 2 27 2 12 2 27 18 28 4 28 13 13 28 18 13 10 27 0 18 16 2 0 10 18 27 19 4 2 19 19 4 16 27 12 8 8 16 16 18 8 12 4 8 19 13 2 19 14 0 16 2 16 8 12 25 8 18 25 4 0 18 8 13 25 2 14 28 25 18 12 19 8 10 13 10 10 8 16 10 0 8 25 4 13 19 2 27 25 28 19 25 25 2 13 28 12 0 28 28 16 25 18 4 0 4 27 27 13 19 4 27 12 12 8 28 25 14 8 14 25 28 19 4 16 2 12 19 0 28 16 25 10 13 8 13 13 28 10 12 27 12 25 25 2 16 16 27 25 27 0 10 0 8 28 2 16 13 13 13 27 10 2 10 27 2 4 13 2 13 8 19 14 4 0 0 10 4 10 2 16 0 19 12 8 28 10 0 16 0 16 19 4 25 12 25 16 10 19 

Total Run Time: 338716 ms.
